Copyright (C) 2013-2015, Filipe Brandao
Build (method = -2)
  #dp: 24769
  Step-3' Graph: 221 vertices and 10633 arcs (0.04s)
  Step-4' Graph: 218 vertices and 10627 arcs (0.05s)
  #V4/#V3 = 0.99
  #A4/#A3 = 1.00
Ready! (0.05s)
Optimize a model with 400 rows, 10628 columns and 31452 nonzeros
Found heuristic solution: objective 321
Presolve removed 84 rows and 86 columns
Presolve time: 0.04s
Presolved: 316 rows, 10542 columns, 31188 nonzeros
Variable types: 0 continuous, 10542 integer (2903 binary)
Optimize a model with 316 rows, 10542 columns and 31188 nonzeros
Presolved: 316 rows, 10542 columns, 31188 nonzeros

Root barrier log...

Ordering time: 0.00s

Barrier statistics:
 AA' NZ     : 1.937e+04
 Factor NZ  : 3.127e+04 (roughly 5 MBytes of memory)
 Factor Ops : 4.160e+06 (less than 1 second per iteration)
 Threads    : 1

                  Objective                Residual
Iter       Primal          Dual         Primal    Dual     Compl     Time
   0   1.01822759e+04 -7.67371466e+04  8.65e+04 5.10e-02  4.35e+01     0s
   1   2.82293626e+03 -2.64240897e+04  8.75e+03 6.66e-16  5.29e+00     0s
   2   1.02857835e+03 -1.16605098e+04  1.35e+03 2.95e-02  1.15e+00     0s
   3   6.42069414e+02 -2.58966763e+03  2.48e+02 3.99e-03  2.25e-01     0s
   4   4.13712641e+02 -9.37565927e+02  4.68e+01 1.36e-03  7.46e-02     0s
   5   3.63916892e+02 -5.55544539e+02  2.89e+01 8.50e-04  4.87e-02     0s
   6   3.29469071e+02 -2.43097220e+02  1.97e+01 3.59e-04  3.01e-02     0s
   7   3.08097442e+02 -1.71279277e+02  1.53e+01 2.49e-04  2.49e-02     0s
   8   2.65873622e+02 -7.73376967e+00  8.07e+00 5.06e-16  1.40e-02     0s
   9   2.14267439e+02  9.36248779e+01  1.65e+00 4.44e-16  5.88e-03     0s
  10   2.00754688e+02  1.38371583e+02  8.45e-01 3.40e-16  3.03e-03     0s
  11   1.96400610e+02  1.44540939e+02  6.04e-01 3.35e-16  2.51e-03     0s
  12   1.92747648e+02  1.56963864e+02  4.29e-01 2.71e-16  1.73e-03     0s
  13   1.91428235e+02  1.61600536e+02  3.53e-01 2.57e-16  1.44e-03     0s
  14   1.90924954e+02  1.62332246e+02  3.19e-01 2.97e-16  1.38e-03     0s
  15   1.90889127e+02  1.63792775e+02  3.12e-01 3.41e-16  1.31e-03     0s
  16   1.90214381e+02  1.69933996e+02  2.75e-01 3.19e-16  9.78e-04     0s
  17   1.89481820e+02  1.71076584e+02  2.16e-01 2.87e-16  8.85e-04     0s
  18   1.88092328e+02  1.72771524e+02  1.36e-01 2.65e-16  7.33e-04     0s
  19   1.87724485e+02  1.75174504e+02  1.15e-01 2.36e-16  6.00e-04     0s
  20   1.87041774e+02  1.78392747e+02  7.51e-02 2.38e-16  4.12e-04     0s
  21   1.86857925e+02  1.78720942e+02  6.41e-02 3.33e-16  3.87e-04     0s
  22   1.86165345e+02  1.81118070e+02  2.74e-02 2.58e-16  2.40e-04     0s
  23   1.85867718e+02  1.82546851e+02  1.25e-02 2.22e-16  1.57e-04     0s
  24   1.85720579e+02  1.83764526e+02  7.99e-03 2.22e-16  9.26e-05     0s
  25   1.85502804e+02  1.84430616e+02  3.42e-03 2.22e-16  5.08e-05     0s
  26   1.85436081e+02  1.84702474e+02  1.96e-03 3.33e-16  3.47e-05     0s
  27   1.85372808e+02  1.84865039e+02  1.10e-03 2.38e-16  2.40e-05     0s
  28   1.85329187e+02  1.85032748e+02  5.97e-04 2.22e-16  1.40e-05     0s
  29   1.85283800e+02  1.85175666e+02  1.83e-04 2.22e-16  5.11e-06     0s
  30   1.85266542e+02  1.85256418e+02  4.21e-05 2.22e-16  4.79e-07     0s
  31   1.85260524e+02  1.85260298e+02  7.49e-07 3.44e-16  1.07e-08     0s
  32   1.85260372e+02  1.85260367e+02  6.27e-09 2.88e-16  2.40e-10     0s
  33   1.85260369e+02  1.85260369e+02  2.31e-10 3.33e-16  3.13e-15     0s

Barrier solved model in 33 iterations and 0.16 seconds
Optimal objective 1.85260369e+02


Root relaxation: objective 1.852604e+02, 438 iterations, 0.16 seconds

    Nodes    |    Current Node    |     Objective Bounds      |     Work
 Expl Unexpl |  Obj  Depth IntInf | Incumbent    BestBd   Gap | It/Node Time

     0     0  185.26037    0   58  321.00000  185.26037  42.3%     -    0s
H    0     0                     186.0000000  185.26037  0.40%     -    0s

Explored 0 nodes (698 simplex iterations) in 0.27 seconds
Thread count was 1 (of 4 available processors)

Optimal solution found (tolerance 0.00e+00)
Best objective 1.860000000000e+02, best bound 1.860000000000e+02, gap 0.0%
Preprocessing time: 0.06 seconds
Gurobi run time: 0.27 seconds
Total run time: 0.33 seconds
Objective: 186
Solution:
3 x [i=1, i=163]
2 x [i=1, i=164]
2 x [i=2, i=161]
1 x [i=2, i=162]
2 x [i=3, i=160]
1 x [i=3, i=181, i=181]
2 x [i=4, i=158]
1 x [i=5, i=157]
1 x [i=6, i=156]
1 x [i=7, i=155]
2 x [i=8, i=154]
2 x [i=9, i=153]
1 x [i=10, i=152]
1 x [i=11, i=151]
2 x [i=12, i=149]
1 x [i=12, i=150]
1 x [i=13, i=148]
1 x [i=14, i=147]
1 x [i=15, i=146]
1 x [i=15, i=147]
1 x [i=16, i=154]
1 x [i=16, i=175, i=180]
1 x [i=17, i=171, i=180]
1 x [i=18]
1 x [i=18, i=144]
2 x [i=19, i=141]
2 x [i=20, i=140]
2 x [i=21, i=139]
1 x [i=22, i=142]
1 x [i=22, i=143]
1 x [i=22, i=169, i=179]
1 x [i=23, i=138]
1 x [i=23, i=143]
1 x [i=23, i=145]
1 x [i=23, i=166, i=182]
1 x [i=24, i=137]
2 x [i=25, i=136]
2 x [i=26, i=136]
3 x [i=27, i=134]
3 x [i=28, i=132]
2 x [i=29, i=131]
3 x [i=30, i=130]
1 x [i=31, i=129]
2 x [i=32, i=128]
1 x [i=33, i=127]
2 x [i=34, i=129]
1 x [i=34, i=131]
1 x [i=34, i=164, i=176]
2 x [i=35, i=127]
1 x [i=35, i=156, i=179]
1 x [i=35, i=172]
4 x [i=36, i=126]
1 x [i=36, i=159, i=177]
3 x [i=37, i=125]
2 x [i=38, i=124]
1 x [i=39, i=122]
2 x [i=40, i=121]
2 x [i=41, i=120]
1 x [i=42, i=122]
1 x [i=42, i=123]
1 x [i=43, i=118]
1 x [i=43, i=119]
1 x [i=43, i=152, i=177]
1 x [i=44, i=117]
1 x [i=44, i=145]
1 x [i=45, i=116]
2 x [i=46, i=116]
1 x [i=47, i=114]
2 x [i=47, i=115]
1 x [i=48, i=116]
1 x [i=49, i=112]
2 x [i=49, i=113]
1 x [i=49, i=148, i=176]
1 x [i=49, i=152, i=174]
2 x [i=49, i=159, i=168]
1 x [i=49, i=164, i=165]
3 x [i=50, i=111]
1 x [i=50, i=157, i=169]
1 x [i=51, i=110]
1 x [i=51, i=151, i=172]
1 x [i=52, i=109]
1 x [i=53, i=108]
1 x [i=54, i=106]
1 x [i=54, i=107]
1 x [i=54, i=108]
1 x [i=55, i=105]
1 x [i=55, i=108]
3 x [i=56, i=104]
1 x [i=57, i=103]
1 x [i=58, i=131, i=181]
1 x [i=58, i=137, i=179]
1 x [i=59, i=102]
1 x [i=60, i=108]
1 x [i=61, i=100]
1 x [i=62, i=99]
1 x [i=63, i=98]
1 x [i=64, i=96]
1 x [i=64, i=97]
1 x [i=65, i=95]
1 x [i=66, i=94]
1 x [i=67, i=98]
1 x [i=68, i=93]
2 x [i=69, i=92]
1 x [i=69, i=93]
1 x [i=70, i=92]
2 x [i=70, i=94]
1 x [i=71, i=171, i=175, i=177]
1 x [i=72, i=123, i=178]
1 x [i=72, i=135, i=170]
2 x [i=73, i=91]
1 x [i=74, i=90]
3 x [i=75, i=89]
1 x [i=75, i=90]
2 x [i=76, i=88]
1 x [i=76, i=90]
1 x [i=76, i=137, i=166]
1 x [i=77, i=87]
3 x [i=77, i=133, i=167]
2 x [i=78, i=86]
2 x [i=79, i=86]
5 x [i=80, i=84]
3 x [i=81, i=85]
1 x [i=81, i=86]
2 x [i=82, i=83]
2 x [i=83, i=83]
1 x [i=100, i=100, i=173]
1 x [i=100, i=100, i=177]
1 x [i=101, i=102, i=171]
